39.07 -94.39
35.28 -97.32
32.47 -96.48
29.46 -95.22
38.39 -90.25
35.08 -90.03
29.58 -90.07
39.06 -84.31
33.45 -84.23
39.57 -75.07
38.54 -77.01
30.2 -81.4
25.46 -80.12
25.05 -77.21
19.2 -96.4
17.03 -96.43
17.59 -92.55
20.58 -89.37
17.3 -88.12
14.38 -90.31
13.42 -89.12
14.06 -87.13
12.09 -86.17
9.56 -84.05
8.58 -79.32
23.08 -82.22
22.24 -79.58
20.01 -75.49
18.0 -76.48
18.32 -72.2
18.28 -69.54
18.28 -66.07
14.36 -61.05
10.39 -61.31
12.06 -68.56
10.3 -66.56
10.4 -71.37
10.59 -74.48
6.15 -75.35
4.36 -74.05
3.27 -76.31
-0.56 -91.01
-0.13 -78.3
-1.4 -78.38
-2.1 -79.5
-3.46 -73.15
-8.07 -79.02
-12.03 -77.03
-13.31 -71.59
-8.46 -63.54
